c random cnf
p cnf 50 50
-1 -23 0
-12 23 0
-42 46 0
10 -29 0
35 48 0
-26 42 0
3 -45 0
16 27 0
2 13 0
-16 42 0
37 49 0
-16 35 0
-13 42 0
-6 -11 0
-17 -49 0
-16 34 0
-2 -3 0
1 -35 0
-15 35 0
41 43 0
-39 -46 0
27 34 0
29 -41 0
-4 28 0
-16 -20 0
19 -33 0
-15 43 0
-13 22 0
-33 49 0
-8 18 0
8 -10 0
4 -27 0
-15 30 0
-12 -17 0
47 49 0
32 -47 0
9 -19 0
22 40 0
19 -20 0
14 -18 0
23 -44 0
11 -40 0
41 -43 0
-29 30 0
17 -49 0
-13 -35 0
-18 25 0
18 -31 0
13 -37 0
-4 37 0
